c SAT Generator for power-law distributed variable frequencies
c -g u -v 20 -c 91 -k 3 -p 2.750000 -b 3.200000 -f /home/schmidt/Devel/ni-kop-sat/data/ensemble/ruf20-91/ruf20-91-420 -u 1 -U 1 -s 4149222271
p cnf 20 91
-5 19 -20 0
-9 -18 20 0
-2 -7 10 0
-4 6 14 0
-4 8 15 0
-4 -12 -15 0
2 -11 12 0
1 -4 7 0
6 -9 19 0
-8 -11 -15 0
3 5 11 0
2 9 -14 0
3 9 -15 0
3 11 13 0
3 7 12 0
-3 9 16 0
3 12 -20 0
3 -10 -13 0
12 17 19 0
5 -7 -15 0
10 -13 16 0
2 5 -19 0
4 -5 -14 0
-3 5 9 0
-4 -13 -20 0
8 -9 12 0
-2 17 -18 0
-3 8 16 0
-3 16 20 0
-1 -7 8 0
-5 -10 -14 0
-1 -2 -19 0
-7 8 -19 0
-3 -10 -20 0
13 -17 -19 0
5 -6 19 0
5 -8 9 0
-16 18 -20 0
-2 11 -19 0
-15 -16 17 0
-1 -16 20 0
8 15 20 0
-3 9 -10 0
-3 11 15 0
1 11 -14 0
-8 11 -12 0
10 11 19 0
-6 8 -11 0
2 -4 -13 0
12 -14 19 0
6 8 15 0
4 8 16 0
7 9 19 0
-8 -11 12 0
-12 15 -17 0
7 -16 -19 0
2 -16 19 0
-2 10 -20 0
-5 11 -19 0
-5 9 -20 0
-5 -13 15 0
-9 18 -20 0
3 9 17 0
2 3 18 0
10 -11 -14 0
-4 -6 -10 0
-8 16 -17 0
-10 17 -18 0
-4 -8 -12 0
-8 -15 -20 0
9 11 -12 0
-2 -12 -18 0
-10 -18 20 0
1 -4 -10 0
-3 4 10 0
1 9 -17 0
-7 12 16 0
8 -12 13 0
-17 18 -19 0
-3 -15 -16 0
3 -7 17 0
-3 17 -18 0
6 -14 -16 0
3 10 -15 0
-8 9 19 0
5 11 12 0
-1 -10 18 0
-1 2 -10 0
14 18 -20 0
-6 7 13 0
1 7 9 0
